40
1 0 115
2 0 94
2 1 15
3 0 85
3 1 36
3 2 66
4 0 74
4 1 26
4 2 2
4 3 69
5 0 13
5 1 103
5 2 7
5 3 94
5 4 11
6 0 30
6 1 47
6 2 39
6 3 25
6 4 56
6 5 12
7 0 21
7 1 103
7 2 65
7 3 60
7 4 35
7 5 81
7 6 80
8 0 104
8 1 105
8 2 103
8 3 13
8 4 101
8 5 42
8 6 18
8 7 39
9 0 76
9 1 16
9 2 5
9 3 86
9 4 41
9 5 58
9 6 59
9 7 9
9 8 33
10 0 88
10 1 31
10 2 81
10 3 119
10 4 105
10 5 61
10 6 62
10 7 49
10 8 35
10 9 52
11 0 18
11 1 31
11 2 1
11 3 5
11 4 21
11 5 80
11 6 105
11 7 30
11 8 40
11 9 91
11 10 52
12 0 120
12 1 76
12 2 49
12 3 57
12 4 9
12 5 20
12 6 83
12 7 64
12 8 90
12 9 43
12 10 61
12 11 91
13 0 60
13 1 113
13 2 68
13 3 115
13 4 49
13 5 93
13 6 75
13 7 89
13 8 119
13 9 49
13 10 80
13 11 9
13 12 64
14 0 120
14 1 61
14 2 82
14 3 29
14 4 101
14 5 100
14 6 3
14 7 87
14 8 101
14 9 102
14 10 109
14 11 77
14 12 62
14 13 114
15 0 104
15 1 68
15 2 53
15 3 11
15 4 109
15 5 43
15 6 24
15 7 91
15 8 34
15 9 66
15 10 23
15 11 95
15 12 36
15 13 78
15 14 5
16 0 47
16 1 49
16 2 37
16 3 33
16 4 4
16 5 9
16 6 86
16 7 60
16 8 29
16 9 20
16 10 93
16 11 59
16 12 38
16 13 92
16 14 94
16 15 76
17 0 64
17 1 95
17 2 93
17 3 91
17 4 55
17 5 98
17 6 92
17 7 47
17 8 25
17 9 100
17 10 54
17 11 96
17 12 7
17 13 113
17 14 17
17 15 49
17 16 65
18 0 36
18 1 12
18 2 70
18 3 114
18 4 79
18 5 46
18 6 81
18 7 7
18 8 44
18 9 114
18 10 112
18 11 24
18 12 92
18 13 77
18 14 83
18 15 29
18 16 23
18 17 32
19 0 103
19 1 8
19 2 15
19 3 114
19 4 76
19 5 53
19 6 29
19 7 47
19 8 10
19 9 67
19 10 29
19 11 86
19 12 106
19 13 70
19 14 97
19 15 20
19 16 38
19 17 114
19 18 23
20 0 85
20 1 69
20 2 26
20 3 1
20 4 32
20 5 80
20 6 103
20 7 52
20 8 37
20 9 75
20 10 23
20 11 109
20 12 105
20 13 100
20 14 36
20 15 103
20 16 40
20 17 74
20 18 90
20 19 29
21 0 43
21 1 52
21 2 39
21 3 91
21 4 6
21 5 31
21 6 32
21 7 23
21 8 22
21 9 14
21 10 69
21 11 9
21 12 96
21 13 87
21 14 44
21 15 89
21 16 106
21 17 97
21 18 58
21 19 58
21 20 92
22 0 56
22 1 86
22 2 20
22 3 41
22 4 85
22 5 46
22 6 103
22 7 53
22 8 2
22 9 17
22 10 2
22 11 111
22 12 61
22 13 26
22 14 58
22 15 20
22 16 23
22 17 60
22 18 29
22 19 16
22 20 29
22 21 23
23 0 82
23 1 40
23 2 38
23 3 101
23 4 110
23 5 4
23 6 51
23 7 6
23 8 30
23 9 96
23 10 98
23 11 33
23 12 119
23 13 17
23 14 103
23 15 31
23 16 19
23 17 100
23 18 109
23 19 26
23 20 79
23 21 22
23 22 81
24 0 93
24 1 22
24 2 36
24 3 69
24 4 32
24 5 95
24 6 30
24 7 1
24 8 99
24 9 100
24 10 54
24 11 76
24 12 58
24 13 116
24 14 106
24 15 1
24 16 23
24 17 9
24 18 102
24 19 26
24 20 44
24 21 70
24 22 55
24 23 47
25 0 64
25 1 51
25 2 115
25 3 19
25 4 10
25 5 66
25 6 73
25 7 46
25 8 24
25 9 106
25 10 104
25 11 112
25 12 64
25 13 3
25 14 106
25 15 23
25 16 14
25 17 18
25 18 81
25 19 59
25 20 77
25 21 97
25 22 54
25 23 101
25 24 13
26 0 88
26 1 119
26 2 65
26 3 48
26 4 90
26 5 6
26 6 70
26 7 41
26 8 43
26 9 13
26 10 101
26 11 31
26 12 92
26 13 120
26 14 72
26 15 23
26 16 24
26 17 36
26 18 105
26 19 20
26 20 115
26 21 51
26 22 50
26 23 23
26 24 57
26 25 94
27 0 71
27 1 119
27 2 33
27 3 64
27 4 51
27 5 59
27 6 98
27 7 94
27 8 56
27 9 80
27 10 34
27 11 22
27 12 30
27 13 35
27 14 8
27 15 37
27 16 77
27 17 71
27 18 59
27 19 46
27 20 26
27 21 106
27 22 97
27 23 3
27 24 55
27 25 98
27 26 96
28 0 27
28 1 67
28 2 73
28 3 35
28 4 91
28 5 113
28 6 61
28 7 62
28 8 74
28 9 105
28 10 48
28 11 19
28 12 25
28 13 95
28 14 20
28 15 50
28 16 59
28 17 25
28 18 43
28 19 61
28 20 27
28 21 33
28 22 17
28 23 50
28 24 109
28 25 50
28 26 92
28 27 97
29 0 36
29 1 73
29 2 101
29 3 46
29 4 56
29 5 23
29 6 26
29 7 17
29 8 81
29 9 36
29 10 40
29 11 46
29 12 88
29 13 38
29 14 25
29 15 28
29 16 67
29 17 111
29 18 71
29 19 21
29 20 115
29 21 75
29 22 91
29 23 105
29 24 6
29 25 104
29 26 13
29 27 20
29 28 89
30 0 15
30 1 66
30 2 17
30 3 22
30 4 65
30 5 26
30 6 64
30 7 14
30 8 113
30 9 14
30 10 118
30 11 71
30 12 64
30 13 84
30 14 101
30 15 51
30 16 38
30 17 58
30 18 67
30 19 42
30 20 27
30 21 20
30 22 98
30 23 88
30 24 53
30 25 110
30 26 1
30 27 53
30 28 45
30 29 89
31 0 82
31 1 2
31 2 48
31 3 16
31 4 1
31 5 45
31 6 15
31 7 51
31 8 65
31 9 94
31 10 112
31 11 60
31 12 76
31 13 57
31 14 3
31 15 99
31 16 49
31 17 75
31 18 33
31 19 106
31 20 13
31 21 28
31 22 54
31 23 72
31 24 28
31 25 16
31 26 96
31 27 39
31 28 98
31 29 49
31 30 119
32 0 25
32 1 74
32 2 82
32 3 100
32 4 51
32 5 31
32 6 24
32 7 42
32 8 43
32 9 60
32 10 79
32 11 20
32 12 76
32 13 22
32 14 13
32 15 17
32 16 100
32 17 61
32 18 66
32 19 98
32 20 10
32 21 85
32 22 107
32 23 17
32 24 117
32 25 42
32 26 55
32 27 51
32 28 54
32 29 80
32 30 27
32 31 67
33 0 66
33 1 95
33 2 55
33 3 113
33 4 41
33 5 96
33 6 53
33 7 82
33 8 31
33 9 91
33 10 49
33 11 114
33 12 83
33 13 45
33 14 118
33 15 67
33 16 77
33 17 112
33 18 76
33 19 28
33 20 82
33 21 57
33 22 116
33 23 7
33 24 78
33 25 62
33 26 115
33 27 7
33 28 80
33 29 92
33 30 40
33 31 117
33 32 66
34 0 67
34 1 86
34 2 76
34 3 77
34 4 4
34 5 35
34 6 60
34 7 71
34 8 36
34 9 12
34 10 34
34 11 86
34 12 2
34 13 27
34 14 86
34 15 107
34 16 24
34 17 49
34 18 103
34 19 13
34 20 20
34 21 110
34 22 65
34 23 20
34 24 115
34 25 86
34 26 98
34 27 19
34 28 77
34 29 31
34 30 68
34 31 81
34 32 25
34 33 47
35 0 63
35 1 106
35 2 24
35 3 28
35 4 55
35 5 115
35 6 19
35 7 7
35 8 33
35 9 59
35 10 49
35 11 57
35 12 26
35 13 99
35 14 118
35 15 53
35 16 59
35 17 60
35 18 76
35 19 118
35 20 113
35 21 20
35 22 17
35 23 68
35 24 78
35 25 96
35 26 55
35 27 59
35 28 66
35 29 112
35 30 48
35 31 106
35 32 53
35 33 33
35 34 103
36 0 117
36 1 116
36 2 120
36 3 101
36 4 101
36 5 67
36 6 55
36 7 86
36 8 98
36 9 27
36 10 27
36 11 62
36 12 25
36 13 94
36 14 77
36 15 25
36 16 8
36 17 5
36 18 35
36 19 22
36 20 117
36 21 86
36 22 9
36 23 59
36 24 51
36 25 48
36 26 100
36 27 66
36 28 119
36 29 88
36 30 79
36 31 27
36 32 40
36 33 64
36 34 41
36 35 83
37 0 9
37 1 81
37 2 77
37 3 49
37 4 79
37 5 104
37 6 34
37 7 2
37 8 3
37 9 81
37 10 104
37 11 15
37 12 73
37 13 52
37 14 10
37 15 34
37 16 119
37 17 96
37 18 120
37 19 61
37 20 30
37 21 31
37 22 30
37 23 29
37 24 91
37 25 92
37 26 39
37 27 75
37 28 17
37 29 23
37 30 51
37 31 42
37 32 50
37 33 60
37 34 62
37 35 78
37 36 83
38 0 79
38 1 66
38 2 5
38 3 111
38 4 94
38 5 113
38 6 108
38 7 68
38 8 113
38 9 108
38 10 13
38 11 12
38 12 85
38 13 2
38 14 19
38 15 100
38 16 43
38 17 44
38 18 78
38 19 54
38 20 31
38 21 1
38 22 106
38 23 19
38 24 109
38 25 59
38 26 15
38 27 52
38 28 76
38 29 114
38 30 84
38 31 86
38 32 108
38 33 94
38 34 113
38 35 73
38 36 95
38 37 1
39 0 91
39 1 30
39 2 5
39 3 97
39 4 23
39 5 21
39 6 84
39 7 106
39 8 50
39 9 81
39 10 49
39 11 63
39 12 108
39 13 49
39 14 86
39 15 86
39 16 88
39 17 117
39 18 118
39 19 52
39 20 47
39 21 61
39 22 98
39 23 11
39 24 39
39 25 77
39 26 9
39 27 112
39 28 31
39 29 35
39 30 107
39 31 55
39 32 5
39 33 30
39 34 26
39 35 63
39 36 46
39 37 41
39 38 102
